objective value:                                    0
lambda[0,43]*                                       1 	(obj:0)
lambda[0,44]*                                       1 	(obj:0)
lambda[0,52]*                                       3 	(obj:0)
lambda[0,54]*                                       3 	(obj:0)
lambda[0,55]*                                       1 	(obj:0)
lambda[0,57]*                                       1 	(obj:0)
lambda[1,48]*                                      10 	(obj:0)
